\ Model Model5
\ LP format - for model browsing. Use MPS format to capture full model detail.
Minimize
  0 x[0,0,0,0] + 0 x[0,0,0,2] + 0 x[0,0,1,1] + 0 x[0,0,1,2] + 0 x[0,0,2,2]
   + 0 x[0,0,3,2] + 0 x[0,0,4,2] + 0 x[0,1,0,1] + 0 x[0,1,1,0]
   + 0 x[0,1,1,2] + 0 x[0,1,3,1] + 0 x[0,1,4,0] + 0 x[0,2,0,0]
   + 0 x[0,2,0,2] + 0 x[0,2,1,0] + 0 x[0,2,2,0] + 0 x[0,2,3,0]
   + 0 x[0,2,3,1] + 0 x[0,2,4,0] + 0 x[1,0,0,0] + 0 x[1,0,0,1]
   + 0 x[1,0,0,2] + 0 x[1,0,1,0] + 0 x[1,0,1,1] + 0 x[1,0,1,2]
   + 0 x[1,0,2,1] + 0 x[1,0,2,2] + 0 x[1,0,3,2] + 0 x[1,0,4,2]
   + 0 x[1,1,0,0] + 0 x[1,1,0,1] + 0 x[1,1,0,2] + 0 x[1,1,1,0]
   + 0 x[1,1,1,1] + 0 x[1,1,2,0] + 0 x[1,1,3,0] + 0 x[1,1,3,1]
   + 0 x[1,1,4,0] + 0 x[1,2,0,0] + 0 x[1,2,0,1] + 0 x[1,2,0,2]
   + 0 x[1,2,1,0] + 0 x[1,2,1,2] + 0 x[1,2,2,0] + 0 x[1,2,3,0]
   + 0 x[1,2,3,1] + 0 x[1,2,4,0] + 0 x[2,0,0,0] + 0 x[2,0,0,1]
   + 0 x[2,0,0,2] + 0 x[2,0,1,0] + 0 x[2,0,1,1] + 0 x[2,0,1,2]
   + 0 x[2,0,2,0] + 0 x[2,0,2,2] + 0 x[2,0,3,2] + 0 x[2,0,4,2]
   + 0 x[2,1,0,0] + 0 x[2,1,0,1] + 0 x[2,1,0,2] + 0 x[2,1,1,0]
   + 0 x[2,1,1,1] + 0 x[2,1,1,2] + 0 x[2,1,2,1] + 0 x[2,1,2,2]
   + 0 x[2,1,3,1] + 0 x[2,1,3,2] + 0 x[2,1,4,0] + 0 x[2,2,0,0]
   + 0 x[2,2,0,1] + 0 x[2,2,0,2] + 0 x[2,2,1,0] + 0 x[2,2,1,1]
   + 0 x[2,2,1,2] + 0 x[2,2,2,0] + 0 x[2,2,2,1] + 0 x[2,2,2,2]
   + 0 x[2,2,3,0] + 0 x[2,2,3,1] + 0 x[2,2,4,0] + 0 x[2,2,4,1]
   + 0 x[3,0,0,0] + 0 x[3,0,0,1] + 0 x[3,0,0,2] + 0 x[3,0,1,0]
   + 0 x[3,0,1,1] + 0 x[3,0,1,2] + 0 x[3,0,2,0] + 0 x[3,0,2,1]
   + 0 x[3,0,2,2] + 0 x[3,0,3,0] + 0 x[3,0,3,1] + 0 x[3,0,3,2]
   + 0 x[3,0,4,2] + 0 x[3,1,0,0] + 0 x[3,1,0,1] + 0 x[3,1,0,2]
   + 0 x[3,1,1,0] + 0 x[3,1,1,1] + 0 x[3,1,1,2] + 0 x[3,1,2,0]
   + 0 x[3,1,2,1] + 0 x[3,1,2,2] + 0 x[3,1,3,0] + 0 x[3,1,3,1]
   + 0 x[3,1,3,2] + 0 x[3,1,4,2] + 0 x[3,2,0,0] + 0 x[3,2,0,1]
   + 0 x[3,2,0,2] + 0 x[3,2,1,0] + 0 x[3,2,1,1] + 0 x[3,2,1,2]
   + 0 x[3,2,2,0] + 0 x[3,2,2,1] + 0 x[3,2,2,2] + 0 x[3,2,3,0]
   + 0 x[3,2,3,1] + 0 x[3,2,3,2] + 0 x[3,2,4,0] + 0 x[3,2,4,1]
   + 0 x[4,0,0,0] + 0 x[4,0,0,1] + 0 x[4,0,0,2] + 0 x[4,0,1,0]
   + 0 x[4,0,1,1] + 0 x[4,0,1,2] + 0 x[4,0,2,0] + 0 x[4,0,2,1]
   + 0 x[4,0,2,2] + 0 x[4,0,3,0] + 0 x[4,0,3,1] + 0 x[4,0,3,2]
   + 0 x[4,0,4,0] + 0 x[4,0,4,2] + 0 x[4,1,0,0] + 0 x[4,1,0,1]
   + 0 x[4,1,0,2] + 0 x[4,1,1,0] + 0 x[4,1,1,1] + 0 x[4,1,1,2]
   + 0 x[4,1,2,0] + 0 x[4,1,2,1] + 0 x[4,1,2,2] + 0 x[4,1,3,0]
   + 0 x[4,1,3,1] + 0 x[4,1,3,2] + 0 x[4,1,4,1] + 0 x[4,2,0,0]
   + 0 x[4,2,0,1] + 0 x[4,2,0,2] + 0 x[4,2,1,0] + 0 x[4,2,1,1]
   + 0 x[4,2,1,2] + 0 x[4,2,2,0] + 0 x[4,2,2,1] + 0 x[4,2,2,2]
   + 0 x[4,2,3,0] + 0 x[4,2,3,1] + 0 x[4,2,3,2] + 0 x[4,2,4,0]
   + 0 x[4,2,4,2] + Z_FO
Subject To
 assignment_job0_stage0_constraint: y[0,0,3] + y[0,0,4] = 1
 assignment_job0_stage1_constraint: y[0,1,1] + y[0,1,3] = 1
 assignment_job0_stage2_constraint: y[0,2,0] + y[0,2,1] + y[0,2,2] = 1
 assignment_job1_stage0_constraint: y[1,0,4] + y[1,0,5] = 1
 assignment_job1_stage1_constraint: y[1,1,1] + y[1,1,2] = 1
 assignment_job1_stage2_constraint: y[1,2,0] + y[1,2,2] = 1
 assignment_job2_stage0_constraint: y[2,0,3] + y[2,0,4] + y[2,0,5] = 1
 assignment_job2_stage1_constraint: y[2,1,2] + y[2,1,3] = 1
 assignment_job2_stage2_constraint: y[2,2,0] + y[2,2,1] = 1
 assignment_job3_stage0_constraint: y[3,0,3] + y[3,0,5] = 1
 assignment_job3_stage1_constraint: y[3,1,4] = 1
 assignment_job3_stage2_constraint: y[3,2,0] + y[3,2,1] = 1
 assignment_job4_stage0_constraint: y[4,0,4] + y[4,0,5] = 1
 assignment_job4_stage1_constraint: y[4,1,2] + y[4,1,3] + y[4,1,4] = 1
 assignment_job4_stage2_constraint: y[4,2,0] + y[4,2,1] + y[4,2,2] = 1
 start_time_job0_stage0_machine3_constraint1: - 1e+06 y[0,0,3] + s[0,0,3]
   <= 0
 start_time_job0_stage0_machine4_constraint1: - 1e+06 y[0,0,4] + s[0,0,4]
   <= 0
 start_time_job0_stage1_machine1_constraint1: - 1e+06 y[0,1,1] + s[0,1,1]
   <= 0
 start_time_job0_stage1_machine3_constraint1: - 1e+06 y[0,1,3] + s[0,1,3]
   <= 0
 start_time_job0_stage2_machine0_constraint1: - 1e+06 y[0,2,0] + s[0,2,0]
   <= 0
 start_time_job0_stage2_machine1_constraint1: - 1e+06 y[0,2,1] + s[0,2,1]
   <= 0
 start_time_job0_stage2_machine2_constraint1: - 1e+06 y[0,2,2] + s[0,2,2]
   <= 0
 start_time_job1_stage0_machine4_constraint1: - 1e+06 y[1,0,4] + s[1,0,4]
   <= 0
 start_time_job1_stage0_machine5_constraint1: - 1e+06 y[1,0,5] + s[1,0,5]
   <= 0
 start_time_job1_stage1_machine1_constraint1: - 1e+06 y[1,1,1] + s[1,1,1]
   <= 0
 start_time_job1_stage1_machine2_constraint1: - 1e+06 y[1,1,2] + s[1,1,2]
   <= 0
 start_time_job1_stage2_machine0_constraint1: - 1e+06 y[1,2,0] + s[1,2,0]
   <= 0
 start_time_job1_stage2_machine2_constraint1: - 1e+06 y[1,2,2] + s[1,2,2]
   <= 0
 start_time_job2_stage0_machine3_constraint1: - 1e+06 y[2,0,3] + s[2,0,3]
   <= 0
 start_time_job2_stage0_machine4_constraint1: - 1e+06 y[2,0,4] + s[2,0,4]
   <= 0
 start_time_job2_stage0_machine5_constraint1: - 1e+06 y[2,0,5] + s[2,0,5]
   <= 0
 start_time_job2_stage1_machine2_constraint1: - 1e+06 y[2,1,2] + s[2,1,2]
   <= 0
 start_time_job2_stage1_machine3_constraint1: - 1e+06 y[2,1,3] + s[2,1,3]
   <= 0
 start_time_job2_stage2_machine0_constraint1: - 1e+06 y[2,2,0] + s[2,2,0]
   <= 0
 start_time_job2_stage2_machine1_constraint1: - 1e+06 y[2,2,1] + s[2,2,1]
   <= 0
 start_time_job3_stage0_machine3_constraint1: - 1e+06 y[3,0,3] + s[3,0,3]
   <= 0
 start_time_job3_stage0_machine5_constraint1: - 1e+06 y[3,0,5] + s[3,0,5]
   <= 0
 start_time_job3_stage1_machine4_constraint1: - 1e+06 y[3,1,4] + s[3,1,4]
   <= 0
 start_time_job3_stage2_machine0_constraint1: - 1e+06 y[3,2,0] + s[3,2,0]
   <= 0
 start_time_job3_stage2_machine1_constraint1: - 1e+06 y[3,2,1] + s[3,2,1]
   <= 0
 start_time_job4_stage0_machine4_constraint1: - 1e+06 y[4,0,4] + s[4,0,4]
   <= 0
 start_time_job4_stage0_machine5_constraint1: - 1e+06 y[4,0,5] + s[4,0,5]
   <= 0
 start_time_job4_stage1_machine2_constraint1: - 1e+06 y[4,1,2] + s[4,1,2]
   <= 0
 start_time_job4_stage1_machine3_constraint1: - 1e+06 y[4,1,3] + s[4,1,3]
   <= 0
 start_time_job4_stage1_machine4_constraint1: - 1e+06 y[4,1,4] + s[4,1,4]
   <= 0
 start_time_job4_stage2_machine0_constraint1: - 1e+06 y[4,2,0] + s[4,2,0]
   <= 0
 start_time_job4_stage2_machine1_constraint1: - 1e+06 y[4,2,1] + s[4,2,1]
   <= 0
 start_time_job4_stage2_machine2_constraint1: - 1e+06 y[4,2,2] + s[4,2,2]
   <= 0
 precedence_between_0,1_to_0,0_if_x_[j,l,h,z,i]=1: - 1e+06 y[0,0,3]
   - 1e+06 y[0,1,3] - 1e+06 x[0,0,0,1] + s[0,0,3] - s[0,1,3]
   >= -2.999662e+06
 precedence_between_0,0_to_0,1_if_x_[j,l,h,z,i]=0: - 1e+06 y[0,0,3]
   - 1e+06 y[0,1,3] + 1e+06 x[0,0,0,1] - s[0,0,3] + s[0,1,3]
   >= -1.999301e+06
 precedence_between_1,0_to_0,0_if_x_[j,l,h,z,i]=1: - 1e+06 y[0,0,4]
   - 1e+06 y[1,0,4] - 1e+06 x[0,0,1,0] + s[0,0,4] - s[1,0,4]
   >= -2.999603e+06
 precedence_between_0,0_to_1,0_if_x_[j,l,h,z,i]=0: - 1e+06 y[0,0,4]
   - 1e+06 y[1,0,4] + 1e+06 x[0,0,1,0] - s[0,0,4] + s[1,0,4]
   >= -1.999012e+06
 precedence_between_2,0_to_0,0_if_x_[j,l,h,z,i]=1: - 1e+06 y[0,0,3]
   - 1e+06 y[2,0,3] - 1e+06 x[0,0,2,0] + s[0,0,3] - s[2,0,3]
   >= -2.999514e+06
 precedence_between_0,0_to_2,0_if_x_[j,l,h,z,i]=0: - 1e+06 y[0,0,3]
   - 1e+06 y[2,0,3] + 1e+06 x[0,0,2,0] - s[0,0,3] + s[2,0,3]
   >= -1.99957e+06
 precedence_between_2,0_to_0,0_if_x_[j,l,h,z,i]=1: - 1e+06 y[0,0,4]
   - 1e+06 y[2,0,4] - 1e+06 x[0,0,2,0] + s[0,0,4] - s[2,0,4]
   >= -2.999635e+06
 precedence_between_0,0_to_2,0_if_x_[j,l,h,z,i]=0: - 1e+06 y[0,0,4]
   - 1e+06 y[2,0,4] + 1e+06 x[0,0,2,0] - s[0,0,4] + s[2,0,4]
   >= -1.999115e+06
 precedence_between_2,1_to_0,0_if_x_[j,l,h,z,i]=1: - 1e+06 y[0,0,3]
   - 1e+06 y[2,1,3] - 1e+06 x[0,0,2,1] + s[0,0,3] - s[2,1,3]
   >= -2.999532e+06
 precedence_between_0,0_to_2,1_if_x_[j,l,h,z,i]=0: - 1e+06 y[0,0,3]
   - 1e+06 y[2,1,3] + 1e+06 x[0,0,2,1] - s[0,0,3] + s[2,1,3]
   >= -1.999285e+06
 precedence_between_3,0_to_0,0_if_x_[j,l,h,z,i]=1: - 1e+06 y[0,0,3]
   - 1e+06 y[3,0,3] - 1e+06 x[0,0,3,0] + s[0,0,3] - s[3,0,3]
   >= -2.999091e+06
 precedence_between_0,0_to_3,0_if_x_[j,l,h,z,i]=0: - 1e+06 y[0,0,3]
   - 1e+06 y[3,0,3] + 1e+06 x[0,0,3,0] - s[0,0,3] + s[3,0,3]
   >= -1.999241e+06
 precedence_between_3,1_to_0,0_if_x_[j,l,h,z,i]=1: - 1e+06 y[0,0,4]
   - 1e+06 y[3,1,4] - 1e+06 x[0,0,3,1] + s[0,0,4] - s[3,1,4]
   >= -2.999509e+06
 precedence_between_0,0_to_3,1_if_x_[j,l,h,z,i]=0: - 1e+06 y[0,0,4]
   - 1e+06 y[3,1,4] + 1e+06 x[0,0,3,1] - s[0,0,4] + s[3,1,4]
   >= -1.999576e+06
 precedence_between_4,0_to_0,0_if_x_[j,l,h,z,i]=1: - 1e+06 y[0,0,4]
   - 1e+06 y[4,0,4] - 1e+06 x[0,0,4,0] + s[0,0,4] - s[4,0,4]
   >= -2.999386e+06
 precedence_between_0,0_to_4,0_if_x_[j,l,h,z,i]=0: - 1e+06 y[0,0,4]
   - 1e+06 y[4,0,4] + 1e+06 x[0,0,4,0] - s[0,0,4] + s[4,0,4]
   >= -1.999638e+06
 precedence_between_4,1_to_0,0_if_x_[j,l,h,z,i]=1: - 1e+06 y[0,0,3]
   - 1e+06 y[4,1,3] - 1e+06 x[0,0,4,1] + s[0,0,3] - s[4,1,3]
   >= -2.999347e+06
 precedence_between_0,0_to_4,1_if_x_[j,l,h,z,i]=0: - 1e+06 y[0,0,3]
   - 1e+06 y[4,1,3] + 1e+06 x[0,0,4,1] - s[0,0,3] + s[4,1,3]
   >= -1.999075e+06
 precedence_between_4,1_to_0,0_if_x_[j,l,h,z,i]=1: - 1e+06 y[0,0,4]
   - 1e+06 y[4,1,4] - 1e+06 x[0,0,4,1] + s[0,0,4] - s[4,1,4]
   >= -2.999731e+06
 precedence_between_0,0_to_4,1_if_x_[j,l,h,z,i]=0: - 1e+06 y[0,0,4]
   - 1e+06 y[4,1,4] + 1e+06 x[0,0,4,1] - s[0,0,4] + s[4,1,4]
   >= -1.99948e+06
 precedence_between_0,0_to_0,1_if_x_[j,l,h,z,i]=1: - 1e+06 y[0,0,3]
   - 1e+06 y[0,1,3] - 1e+06 x[0,1,0,0] - s[0,0,3] + s[0,1,3]
   >= -2.999301e+06
 precedence_between_0,1_to_0,0_if_x_[j,l,h,z,i]=0: - 1e+06 y[0,0,3]
   - 1e+06 y[0,1,3] + 1e+06 x[0,1,0,0] + s[0,0,3] - s[0,1,3]
   >= -1.999662e+06
 precedence_between_0,2_to_0,1_if_x_[j,l,h,z,i]=1: - 1e+06 y[0,1,1]
   - 1e+06 y[0,2,1] - 1e+06 x[0,1,0,2] + s[0,1,1] - s[0,2,1]
   >= -2.999704e+06
 precedence_between_0,1_to_0,2_if_x_[j,l,h,z,i]=0: - 1e+06 y[0,1,1]
   - 1e+06 y[0,2,1] + 1e+06 x[0,1,0,2] - s[0,1,1] + s[0,2,1]
   >= -1.999612e+06
 precedence_between_1,1_to_0,1_if_x_[j,l,h,z,i]=1: - 1e+06 y[0,1,1]
   - 1e+06 y[1,1,1] - 1e+06 x[0,1,1,1] + s[0,1,1] - s[1,1,1]
   >= -2.999102e+06
 precedence_between_0,1_to_1,1_if_x_[j,l,h,z,i]=0: - 1e+06 y[0,1,1]
   - 1e+06 y[1,1,1] + 1e+06 x[0,1,1,1] - s[0,1,1] + s[1,1,1]
   >= -1.999823e+06
 precedence_between_2,0_to_0,1_if_x_[j,l,h,z,i]=1: - 1e+06 y[0,1,3]
   - 1e+06 y[2,0,3] - 1e+06 x[0,1,2,0] + s[0,1,3] - s[2,0,3]
   >= -2.99874e+06
 precedence_between_0,1_to_2,0_if_x_[j,l,h,z,i]=0: - 1e+06 y[0,1,3]
   - 1e+06 y[2,0,3] + 1e+06 x[0,1,2,0] - s[0,1,3] + s[2,0,3]
   >= -1.999687e+06
 precedence_between_2,1_to_0,1_if_x_[j,l,h,z,i]=1: - 1e+06 y[0,1,3]
   - 1e+06 y[2,1,3] - 1e+06 x[0,1,2,1] + s[0,1,3] - s[2,1,3]
   >= -2.999735e+06
 precedence_between_0,1_to_2,1_if_x_[j,l,h,z,i]=0: - 1e+06 y[0,1,3]
   - 1e+06 y[2,1,3] + 1e+06 x[0,1,2,1] - s[0,1,3] + s[2,1,3]
   >= -1.999711e+06
 precedence_between_2,2_to_0,1_if_x_[j,l,h,z,i]=1: - 1e+06 y[0,1,1]
   - 1e+06 y[2,2,1] - 1e+06 x[0,1,2,2] + s[0,1,1] - s[2,2,1]
   >= -2.999743e+06
 precedence_between_0,1_to_2,2_if_x_[j,l,h,z,i]=0: - 1e+06 y[0,1,1]
   - 1e+06 y[2,2,1] + 1e+06 x[0,1,2,2] - s[0,1,1] + s[2,2,1]
   >= -1.998855e+06
 precedence_between_3,0_to_0,1_if_x_[j,l,h,z,i]=1: - 1e+06 y[0,1,3]
   - 1e+06 y[3,0,3] - 1e+06 x[0,1,3,0] + s[0,1,3] - s[3,0,3]
   >= -2.999263e+06
 precedence_between_0,1_to_3,0_if_x_[j,l,h,z,i]=0: - 1e+06 y[0,1,3]
   - 1e+06 y[3,0,3] + 1e+06 x[0,1,3,0] - s[0,1,3] + s[3,0,3]
   >= -1.999374e+06
 precedence_between_3,2_to_0,1_if_x_[j,l,h,z,i]=1: - 1e+06 y[0,1,1]
   - 1e+06 y[3,2,1] - 1e+06 x[0,1,3,2] + s[0,1,1] - s[3,2,1]
   >= -2.999647e+06
 precedence_between_0,1_to_3,2_if_x_[j,l,h,z,i]=0: - 1e+06 y[0,1,1]
   - 1e+06 y[3,2,1] + 1e+06 x[0,1,3,2] - s[0,1,1] + s[3,2,1]
   >= -1.999585e+06
 precedence_between_4,1_to_0,1_if_x_[j,l,h,z,i]=1: - 1e+06 y[0,1,3]
   - 1e+06 y[4,1,3] - 1e+06 x[0,1,4,1] + s[0,1,3] - s[4,1,3]
   >= -2.999635e+06
 precedence_between_0,1_to_4,1_if_x_[j,l,h,z,i]=0: - 1e+06 y[0,1,3]
   - 1e+06 y[4,1,3] + 1e+06 x[0,1,4,1] - s[0,1,3] + s[4,1,3]
   >= -1.999596e+06
 precedence_between_4,2_to_0,1_if_x_[j,l,h,z,i]=1: - 1e+06 y[0,1,1]
   - 1e+06 y[4,2,1] - 1e+06 x[0,1,4,2] + s[0,1,1] - s[4,2,1]
   >= -2.999182e+06
 precedence_between_0,1_to_4,2_if_x_[j,l,h,z,i]=0: - 1e+06 y[0,1,1]
   - 1e+06 y[4,2,1] + 1e+06 x[0,1,4,2] - s[0,1,1] + s[4,2,1]
   >= -1.999626e+06
 precedence_between_0,1_to_0,2_if_x_[j,l,h,z,i]=1: - 1e+06 y[0,1,1]
   - 1e+06 y[0,2,1] - 1e+06 x[0,2,0,1] - s[0,1,1] + s[0,2,1]
   >= -2.999612e+06
 precedence_between_0,2_to_0,1_if_x_[j,l,h,z,i]=0: - 1e+06 y[0,1,1]
   - 1e+06 y[0,2,1] + 1e+06 x[0,2,0,1] + s[0,1,1] - s[0,2,1]
   >= -1.999704e+06
 precedence_between_1,1_to_0,2_if_x_[j,l,h,z,i]=1: - 1e+06 y[0,2,1]
   - 1e+06 y[1,1,1] - 1e+06 x[0,2,1,1] + s[0,2,1] - s[1,1,1]
   >= -2.999706e+06
 precedence_between_0,2_to_1,1_if_x_[j,l,h,z,i]=0: - 1e+06 y[0,2,1]
   - 1e+06 y[1,1,1] + 1e+06 x[0,2,1,1] - s[0,2,1] + s[1,1,1]
   >= -1.99965e+06
 precedence_between_1,1_to_0,2_if_x_[j,l,h,z,i]=1: - 1e+06 y[0,2,2]
   - 1e+06 y[1,1,2] - 1e+06 x[0,2,1,1] + s[0,2,2] - s[1,1,2]
   >= -2.999355e+06
 precedence_between_0,2_to_1,1_if_x_[j,l,h,z,i]=0: - 1e+06 y[0,2,2]
   - 1e+06 y[1,1,2] + 1e+06 x[0,2,1,1] - s[0,2,2] + s[1,1,2]
   >= -1.999801e+06
 precedence_between_1,2_to_0,2_if_x_[j,l,h,z,i]=1: - 1e+06 y[0,2,0]
   - 1e+06 y[1,2,0] - 1e+06 x[0,2,1,2] + s[0,2,0] - s[1,2,0]
   >= -2.999144e+06
 precedence_between_0,2_to_1,2_if_x_[j,l,h,z,i]=0: - 1e+06 y[0,2,0]
   - 1e+06 y[1,2,0] + 1e+06 x[0,2,1,2] - s[0,2,0] + s[1,2,0]
   >= -1.999553e+06
 precedence_between_1,2_to_0,2_if_x_[j,l,h,z,i]=1: - 1e+06 y[0,2,2]
   - 1e+06 y[1,2,2] - 1e+06 x[0,2,1,2] + s[0,2,2] - s[1,2,2]
   >= -2.999694e+06
 precedence_between_0,2_to_1,2_if_x_[j,l,h,z,i]=0: - 1e+06 y[0,2,2]
   - 1e+06 y[1,2,2] + 1e+06 x[0,2,1,2] - s[0,2,2] + s[1,2,2]
   >= -1.999435e+06
 precedence_between_2,1_to_0,2_if_x_[j,l,h,z,i]=1: - 1e+06 y[0,2,2]
   - 1e+06 y[2,1,2] - 1e+06 x[0,2,2,1] + s[0,2,2] - s[2,1,2]
   >= -2.999045e+06
 precedence_between_0,2_to_2,1_if_x_[j,l,h,z,i]=0: - 1e+06 y[0,2,2]
   - 1e+06 y[2,1,2] + 1e+06 x[0,2,2,1] - s[0,2,2] + s[2,1,2]
   >= -1.99934e+06
 precedence_between_2,2_to_0,2_if_x_[j,l,h,z,i]=1: - 1e+06 y[0,2,0]
   - 1e+06 y[2,2,0] - 1e+06 x[0,2,2,2] + s[0,2,0] - s[2,2,0]
   >= -2.999271e+06
 precedence_between_0,2_to_2,2_if_x_[j,l,h,z,i]=0: - 1e+06 y[0,2,0]
   - 1e+06 y[2,2,0] + 1e+06 x[0,2,2,2] - s[0,2,0] + s[2,2,0]
   >= -1.999629e+06
 precedence_between_2,2_to_0,2_if_x_[j,l,h,z,i]=1: - 1e+06 y[0,2,1]
   - 1e+06 y[2,2,1] - 1e+06 x[0,2,2,2] + s[0,2,1] - s[2,2,1]
   >= -2.999602e+06
 precedence_between_0,2_to_2,2_if_x_[j,l,h,z,i]=0: - 1e+06 y[0,2,1]
   - 1e+06 y[2,2,1] + 1e+06 x[0,2,2,2] - s[0,2,1] + s[2,2,1]
   >= -1.999448e+06
 precedence_between_3,2_to_0,2_if_x_[j,l,h,z,i]=1: - 1e+06 y[0,2,0]
   - 1e+06 y[3,2,0] - 1e+06 x[0,2,3,2] + s[0,2,0] - s[3,2,0]
   >= -2.999069e+06
 precedence_between_0,2_to_3,2_if_x_[j,l,h,z,i]=0: - 1e+06 y[0,2,0]
   - 1e+06 y[3,2,0] + 1e+06 x[0,2,3,2] - s[0,2,0] + s[3,2,0]
   >= -1.999301e+06
 precedence_between_3,2_to_0,2_if_x_[j,l,h,z,i]=1: - 1e+06 y[0,2,1]
   - 1e+06 y[3,2,1] - 1e+06 x[0,2,3,2] + s[0,2,1] - s[3,2,1]
   >= -2.999537e+06
 precedence_between_0,2_to_3,2_if_x_[j,l,h,z,i]=0: - 1e+06 y[0,2,1]
   - 1e+06 y[3,2,1] + 1e+06 x[0,2,3,2] - s[0,2,1] + s[3,2,1]
   >= -1.999113e+06
 precedence_between_4,1_to_0,2_if_x_[j,l,h,z,i]=1: - 1e+06 y[0,2,2]
   - 1e+06 y[4,1,2] - 1e+06 x[0,2,4,1] + s[0,2,2] - s[4,1,2]
   >= -2.999756e+06
 precedence_between_0,2_to_4,1_if_x_[j,l,h,z,i]=0: - 1e+06 y[0,2,2]
   - 1e+06 y[4,1,2] + 1e+06 x[0,2,4,1] - s[0,2,2] + s[4,1,2]
   >= -1.999459e+06
 precedence_between_4,2_to_0,2_if_x_[j,l,h,z,i]=1: - 1e+06 y[0,2,0]
   - 1e+06 y[4,2,0] - 1e+06 x[0,2,4,2] + s[0,2,0] - s[4,2,0]
   >= -2.999673e+06
 precedence_between_0,2_to_4,2_if_x_[j,l,h,z,i]=0: - 1e+06 y[0,2,0]
   - 1e+06 y[4,2,0] + 1e+06 x[0,2,4,2] - s[0,2,0] + s[4,2,0]
   >= -1.999518e+06
 precedence_between_4,2_to_0,2_if_x_[j,l,h,z,i]=1: - 1e+06 y[0,2,1]
   - 1e+06 y[4,2,1] - 1e+06 x[0,2,4,2] + s[0,2,1] - s[4,2,1]
   >= -2.999298e+06
 precedence_between_0,2_to_4,2_if_x_[j,l,h,z,i]=0: - 1e+06 y[0,2,1]
   - 1e+06 y[4,2,1] + 1e+06 x[0,2,4,2] - s[0,2,1] + s[4,2,1]
   >= -1.999604e+06
 precedence_between_4,2_to_0,2_if_x_[j,l,h,z,i]=1: - 1e+06 y[0,2,2]
   - 1e+06 y[4,2,2] - 1e+06 x[0,2,4,2] + s[0,2,2] - s[4,2,2]
   >= -2.999555e+06
 precedence_between_0,2_to_4,2_if_x_[j,l,h,z,i]=0: - 1e+06 y[0,2,2]
   - 1e+06 y[4,2,2] + 1e+06 x[0,2,4,2] - s[0,2,2] + s[4,2,2]
   >= -1.999631e+06
 precedence_between_2,0_to_1,0_if_x_[j,l,h,z,i]=1: - 1e+06 y[1,0,4]
   - 1e+06 y[2,0,4] - 1e+06 x[1,0,2,0] + s[1,0,4] - s[2,0,4]
   >= -2.99965e+06
 precedence_between_1,0_to_2,0_if_x_[j,l,h,z,i]=0: - 1e+06 y[1,0,4]
   - 1e+06 y[2,0,4] + 1e+06 x[1,0,2,0] - s[1,0,4] + s[2,0,4]
   >= -1.999684e+06
 precedence_between_2,0_to_1,0_if_x_[j,l,h,z,i]=1: - 1e+06 y[1,0,5]
   - 1e+06 y[2,0,5] - 1e+06 x[1,0,2,0] + s[1,0,5] - s[2,0,5]
   >= -2.999709e+06
 precedence_between_1,0_to_2,0_if_x_[j,l,h,z,i]=0: - 1e+06 y[1,0,5]
   - 1e+06 y[2,0,5] + 1e+06 x[1,0,2,0] - s[1,0,5] + s[2,0,5]
   >= -1.99977e+06
 precedence_between_3,0_to_1,0_if_x_[j,l,h,z,i]=1: - 1e+06 y[1,0,5]
   - 1e+06 y[3,0,5] - 1e+06 x[1,0,3,0] + s[1,0,5] - s[3,0,5]
   >= -2.999572e+06
 precedence_between_1,0_to_3,0_if_x_[j,l,h,z,i]=0: - 1e+06 y[1,0,5]
   - 1e+06 y[3,0,5] + 1e+06 x[1,0,3,0] - s[1,0,5] + s[3,0,5]
   >= -1.999623e+06
 precedence_between_3,1_to_1,0_if_x_[j,l,h,z,i]=1: - 1e+06 y[1,0,4]
   - 1e+06 y[3,1,4] - 1e+06 x[1,0,3,1] + s[1,0,4] - s[3,1,4]
   >= -2.999072e+06
 precedence_between_1,0_to_3,1_if_x_[j,l,h,z,i]=0: - 1e+06 y[1,0,4]
   - 1e+06 y[3,1,4] + 1e+06 x[1,0,3,1] - s[1,0,4] + s[3,1,4]
   >= -1.999664e+06
 precedence_between_4,0_to_1,0_if_x_[j,l,h,z,i]=1: - 1e+06 y[1,0,4]
   - 1e+06 y[4,0,4] - 1e+06 x[1,0,4,0] + s[1,0,4] - s[4,0,4]
   >= -2.99932e+06
 precedence_between_1,0_to_4,0_if_x_[j,l,h,z,i]=0: - 1e+06 y[1,0,4]
   - 1e+06 y[4,0,4] + 1e+06 x[1,0,4,0] - s[1,0,4] + s[4,0,4]
   >= -1.999047e+06
 precedence_between_4,0_to_1,0_if_x_[j,l,h,z,i]=1: - 1e+06 y[1,0,5]
   - 1e+06 y[4,0,5] - 1e+06 x[1,0,4,0] + s[1,0,5] - s[4,0,5]
   >= -2.999857e+06
 precedence_between_1,0_to_4,0_if_x_[j,l,h,z,i]=0: - 1e+06 y[1,0,5]
   - 1e+06 y[4,0,5] + 1e+06 x[1,0,4,0] - s[1,0,5] + s[4,0,5]
   >= -1.999275e+06
 precedence_between_4,1_to_1,0_if_x_[j,l,h,z,i]=1: - 1e+06 y[1,0,4]
   - 1e+06 y[4,1,4] - 1e+06 x[1,0,4,1] + s[1,0,4] - s[4,1,4]
   >= -2.999864e+06
 precedence_between_1,0_to_4,1_if_x_[j,l,h,z,i]=0: - 1e+06 y[1,0,4]
   - 1e+06 y[4,1,4] + 1e+06 x[1,0,4,1] - s[1,0,4] + s[4,1,4]
   >= -1.999218e+06
 precedence_between_1,2_to_1,1_if_x_[j,l,h,z,i]=1: - 1e+06 y[1,1,2]
   - 1e+06 y[1,2,2] - 1e+06 x[1,1,1,2] + s[1,1,2] - s[1,2,2]
   >= -2.999649e+06
 precedence_between_1,1_to_1,2_if_x_[j,l,h,z,i]=0: - 1e+06 y[1,1,2]
   - 1e+06 y[1,2,2] + 1e+06 x[1,1,1,2] - s[1,1,2] + s[1,2,2]
   >= -1.999731e+06
 precedence_between_2,1_to_1,1_if_x_[j,l,h,z,i]=1: - 1e+06 y[1,1,2]
   - 1e+06 y[2,1,2] - 1e+06 x[1,1,2,1] + s[1,1,2] - s[2,1,2]
   >= -2.99888e+06
 precedence_between_1,1_to_2,1_if_x_[j,l,h,z,i]=0: - 1e+06 y[1,1,2]
   - 1e+06 y[2,1,2] + 1e+06 x[1,1,2,1] - s[1,1,2] + s[2,1,2]
   >= -1.999739e+06
 precedence_between_2,2_to_1,1_if_x_[j,l,h,z,i]=1: - 1e+06 y[1,1,1]
   - 1e+06 y[2,2,1] - 1e+06 x[1,1,2,2] + s[1,1,1] - s[2,2,1]
   >= -2.99978e+06
 precedence_between_1,1_to_2,2_if_x_[j,l,h,z,i]=0: - 1e+06 y[1,1,1]
   - 1e+06 y[2,2,1] + 1e+06 x[1,1,2,2] - s[1,1,1] + s[2,2,1]
   >= -1.999523e+06
 precedence_between_3,2_to_1,1_if_x_[j,l,h,z,i]=1: - 1e+06 y[1,1,1]
   - 1e+06 y[3,2,1] - 1e+06 x[1,1,3,2] + s[1,1,1] - s[3,2,1]
   >= -2.999758e+06
 precedence_between_1,1_to_3,2_if_x_[j,l,h,z,i]=0: - 1e+06 y[1,1,1]
   - 1e+06 y[3,2,1] + 1e+06 x[1,1,3,2] - s[1,1,1] + s[3,2,1]
   >= -1.999548e+06
 precedence_between_4,1_to_1,1_if_x_[j,l,h,z,i]=1: - 1e+06 y[1,1,2]
   - 1e+06 y[4,1,2] - 1e+06 x[1,1,4,1] + s[1,1,2] - s[4,1,2]
   >= -2.999662e+06
 precedence_between_1,1_to_4,1_if_x_[j,l,h,z,i]=0: - 1e+06 y[1,1,2]
   - 1e+06 y[4,1,2] + 1e+06 x[1,1,4,1] - s[1,1,2] + s[4,1,2]
   >= -1.999501e+06
 precedence_between_4,2_to_1,1_if_x_[j,l,h,z,i]=1: - 1e+06 y[1,1,1]
   - 1e+06 y[4,2,1] - 1e+06 x[1,1,4,2] + s[1,1,1] - s[4,2,1]
   >= -2.999724e+06
 precedence_between_1,1_to_4,2_if_x_[j,l,h,z,i]=0: - 1e+06 y[1,1,1]
   - 1e+06 y[4,2,1] + 1e+06 x[1,1,4,2] - s[1,1,1] + s[4,2,1]
   >= -1.99984e+06
 precedence_between_4,2_to_1,1_if_x_[j,l,h,z,i]=1: - 1e+06 y[1,1,2]
   - 1e+06 y[4,2,2] - 1e+06 x[1,1,4,2] + s[1,1,2] - s[4,2,2]
   >= -2.999462e+06
 precedence_between_1,1_to_4,2_if_x_[j,l,h,z,i]=0: - 1e+06 y[1,1,2]
   - 1e+06 y[4,2,2] + 1e+06 x[1,1,4,2] - s[1,1,2] + s[4,2,2]
   >= -1.99973e+06
 precedence_between_1,1_to_1,2_if_x_[j,l,h,z,i]=1: - 1e+06 y[1,1,2]
   - 1e+06 y[1,2,2] - 1e+06 x[1,2,1,1] - s[1,1,2] + s[1,2,2]
   >= -2.999731e+06
 precedence_between_1,2_to_1,1_if_x_[j,l,h,z,i]=0: - 1e+06 y[1,1,2]
   - 1e+06 y[1,2,2] + 1e+06 x[1,2,1,1] + s[1,1,2] - s[1,2,2]
   >= -1.999649e+06
 precedence_between_2,1_to_1,2_if_x_[j,l,h,z,i]=1: - 1e+06 y[1,2,2]
   - 1e+06 y[2,1,2] - 1e+06 x[1,2,2,1] + s[1,2,2] - s[2,1,2]
   >= -2.999325e+06
 precedence_between_1,2_to_2,1_if_x_[j,l,h,z,i]=0: - 1e+06 y[1,2,2]
   - 1e+06 y[2,1,2] + 1e+06 x[1,2,2,1] - s[1,2,2] + s[2,1,2]
   >= -1.999532e+06
 precedence_between_2,2_to_1,2_if_x_[j,l,h,z,i]=1: - 1e+06 y[1,2,0]
   - 1e+06 y[2,2,0] - 1e+06 x[1,2,2,2] + s[1,2,0] - s[2,2,0]
   >= -2.999673e+06
 precedence_between_1,2_to_2,2_if_x_[j,l,h,z,i]=0: - 1e+06 y[1,2,0]
   - 1e+06 y[2,2,0] + 1e+06 x[1,2,2,2] - s[1,2,0] + s[2,2,0]
   >= -1.999566e+06
 precedence_between_3,2_to_1,2_if_x_[j,l,h,z,i]=1: - 1e+06 y[1,2,0]
   - 1e+06 y[3,2,0] - 1e+06 x[1,2,3,2] + s[1,2,0] - s[3,2,0]
   >= -2.999484e+06
 precedence_between_1,2_to_3,2_if_x_[j,l,h,z,i]=0: - 1e+06 y[1,2,0]
   - 1e+06 y[3,2,0] + 1e+06 x[1,2,3,2] - s[1,2,0] + s[3,2,0]
   >= -1.999006e+06
 precedence_between_4,1_to_1,2_if_x_[j,l,h,z,i]=1: - 1e+06 y[1,2,2]
   - 1e+06 y[4,1,2] - 1e+06 x[1,2,4,1] + s[1,2,2] - s[4,1,2]
   >= -2.999519e+06
 precedence_between_1,2_to_4,1_if_x_[j,l,h,z,i]=0: - 1e+06 y[1,2,2]
   - 1e+06 y[4,1,2] + 1e+06 x[1,2,4,1] - s[1,2,2] + s[4,1,2]
   >= -1.99897e+06
 precedence_between_4,2_to_1,2_if_x_[j,l,h,z,i]=1: - 1e+06 y[1,2,0]
   - 1e+06 y[4,2,0] - 1e+06 x[1,2,4,2] + s[1,2,0] - s[4,2,0]
   >= -2.999359e+06
 precedence_between_1,2_to_4,2_if_x_[j,l,h,z,i]=0: - 1e+06 y[1,2,0]
   - 1e+06 y[4,2,0] + 1e+06 x[1,2,4,2] - s[1,2,0] + s[4,2,0]
   >= -1.999442e+06
 precedence_between_4,2_to_1,2_if_x_[j,l,h,z,i]=1: - 1e+06 y[1,2,2]
   - 1e+06 y[4,2,2] - 1e+06 x[1,2,4,2] + s[1,2,2] - s[4,2,2]
   >= -2.999507e+06
 precedence_between_1,2_to_4,2_if_x_[j,l,h,z,i]=0: - 1e+06 y[1,2,2]
   - 1e+06 y[4,2,2] + 1e+06 x[1,2,4,2] - s[1,2,2] + s[4,2,2]
   >= -1.999769e+06
 precedence_between_2,1_to_2,0_if_x_[j,l,h,z,i]=1: - 1e+06 y[2,0,3]
   - 1e+06 y[2,1,3] - 1e+06 x[2,0,2,1] + s[2,0,3] - s[2,1,3]
   >= -2.999274e+06
 precedence_between_2,0_to_2,1_if_x_[j,l,h,z,i]=0: - 1e+06 y[2,0,3]
   - 1e+06 y[2,1,3] + 1e+06 x[2,0,2,1] - s[2,0,3] + s[2,1,3]
   >= -1.999716e+06
 precedence_between_3,0_to_2,0_if_x_[j,l,h,z,i]=1: - 1e+06 y[2,0,3]
   - 1e+06 y[3,0,3] - 1e+06 x[2,0,3,0] + s[2,0,3] - s[3,0,3]
   >= -2.99907e+06
 precedence_between_2,0_to_3,0_if_x_[j,l,h,z,i]=0: - 1e+06 y[2,0,3]
   - 1e+06 y[3,0,3] + 1e+06 x[2,0,3,0] - s[2,0,3] + s[3,0,3]
   >= -1.998805e+06
 precedence_between_3,0_to_2,0_if_x_[j,l,h,z,i]=1: - 1e+06 y[2,0,5]
   - 1e+06 y[3,0,5] - 1e+06 x[2,0,3,0] + s[2,0,5] - s[3,0,5]
   >= -2.999435e+06
 precedence_between_2,0_to_3,0_if_x_[j,l,h,z,i]=0: - 1e+06 y[2,0,5]
   - 1e+06 y[3,0,5] + 1e+06 x[2,0,3,0] - s[2,0,5] + s[3,0,5]
   >= -1.999418e+06
 precedence_between_3,1_to_2,0_if_x_[j,l,h,z,i]=1: - 1e+06 y[2,0,4]
   - 1e+06 y[3,1,4] - 1e+06 x[2,0,3,1] + s[2,0,4] - s[3,1,4]
   >= -2.999729e+06
 precedence_between_2,0_to_3,1_if_x_[j,l,h,z,i]=0: - 1e+06 y[2,0,4]
   - 1e+06 y[3,1,4] + 1e+06 x[2,0,3,1] - s[2,0,4] + s[3,1,4]
   >= -1.999472e+06
 precedence_between_4,0_to_2,0_if_x_[j,l,h,z,i]=1: - 1e+06 y[2,0,4]
   - 1e+06 y[4,0,4] - 1e+06 x[2,0,4,0] + s[2,0,4] - s[4,0,4]
   >= -2.99958e+06
 precedence_between_2,0_to_4,0_if_x_[j,l,h,z,i]=0: - 1e+06 y[2,0,4]
   - 1e+06 y[4,0,4] + 1e+06 x[2,0,4,0] - s[2,0,4] + s[4,0,4]
   >= -1.99975e+06
 precedence_between_4,0_to_2,0_if_x_[j,l,h,z,i]=1: - 1e+06 y[2,0,5]
   - 1e+06 y[4,0,5] - 1e+06 x[2,0,4,0] + s[2,0,5] - s[4,0,5]
   >= -2.999381e+06
 precedence_between_2,0_to_4,0_if_x_[j,l,h,z,i]=0: - 1e+06 y[2,0,5]
   - 1e+06 y[4,0,5] + 1e+06 x[2,0,4,0] - s[2,0,5] + s[4,0,5]
   >= -1.999328e+06
 precedence_between_4,1_to_2,0_if_x_[j,l,h,z,i]=1: - 1e+06 y[2,0,3]
   - 1e+06 y[4,1,3] - 1e+06 x[2,0,4,1] + s[2,0,3] - s[4,1,3]
   >= -2.999205e+06
 precedence_between_2,0_to_4,1_if_x_[j,l,h,z,i]=0: - 1e+06 y[2,0,3]
   - 1e+06 y[4,1,3] + 1e+06 x[2,0,4,1] - s[2,0,3] + s[4,1,3]
   >= -1.99951e+06
 precedence_between_4,1_to_2,0_if_x_[j,l,h,z,i]=1: - 1e+06 y[2,0,4]
   - 1e+06 y[4,1,4] - 1e+06 x[2,0,4,1] + s[2,0,4] - s[4,1,4]
   >= -2.999663e+06
 precedence_between_2,0_to_4,1_if_x_[j,l,h,z,i]=0: - 1e+06 y[2,0,4]
   - 1e+06 y[4,1,4] + 1e+06 x[2,0,4,1] - s[2,0,4] + s[4,1,4]
   >= -1.999005e+06
 precedence_between_2,0_to_2,1_if_x_[j,l,h,z,i]=1: - 1e+06 y[2,0,3]
   - 1e+06 y[2,1,3] - 1e+06 x[2,1,2,0] - s[2,0,3] + s[2,1,3]
   >= -2.999716e+06
 precedence_between_2,1_to_2,0_if_x_[j,l,h,z,i]=0: - 1e+06 y[2,0,3]
   - 1e+06 y[2,1,3] + 1e+06 x[2,1,2,0] + s[2,0,3] - s[2,1,3]
   >= -1.999274e+06
 precedence_between_3,0_to_2,1_if_x_[j,l,h,z,i]=1: - 1e+06 y[2,1,3]
   - 1e+06 y[3,0,3] - 1e+06 x[2,1,3,0] + s[2,1,3] - s[3,0,3]
   >= -2.999588e+06
 precedence_between_2,1_to_3,0_if_x_[j,l,h,z,i]=0: - 1e+06 y[2,1,3]
   - 1e+06 y[3,0,3] + 1e+06 x[2,1,3,0] - s[2,1,3] + s[3,0,3]
   >= -1.999315e+06
 precedence_between_4,1_to_2,1_if_x_[j,l,h,z,i]=1: - 1e+06 y[2,1,2]
   - 1e+06 y[4,1,2] - 1e+06 x[2,1,4,1] + s[2,1,2] - s[4,1,2]
   >= -2.999669e+06
 precedence_between_2,1_to_4,1_if_x_[j,l,h,z,i]=0: - 1e+06 y[2,1,2]
   - 1e+06 y[4,1,2] + 1e+06 x[2,1,4,1] - s[2,1,2] + s[4,1,2]
   >= -1.999658e+06
 precedence_between_4,1_to_2,1_if_x_[j,l,h,z,i]=1: - 1e+06 y[2,1,3]
   - 1e+06 y[4,1,3] - 1e+06 x[2,1,4,1] + s[2,1,3] - s[4,1,3]
   >= -2.999886e+06
 precedence_between_2,1_to_4,1_if_x_[j,l,h,z,i]=0: - 1e+06 y[2,1,3]
   - 1e+06 y[4,1,3] + 1e+06 x[2,1,4,1] - s[2,1,3] + s[4,1,3]
   >= -1.999051e+06
 precedence_between_4,2_to_2,1_if_x_[j,l,h,z,i]=1: - 1e+06 y[2,1,2]
   - 1e+06 y[4,2,2] - 1e+06 x[2,1,4,2] + s[2,1,2] - s[4,2,2]
   >= -2.999399e+06
 precedence_between_2,1_to_4,2_if_x_[j,l,h,z,i]=0: - 1e+06 y[2,1,2]
   - 1e+06 y[4,2,2] + 1e+06 x[2,1,4,2] - s[2,1,2] + s[4,2,2]
   >= -1.999753e+06
 precedence_between_3,2_to_2,2_if_x_[j,l,h,z,i]=1: - 1e+06 y[2,2,0]
   - 1e+06 y[3,2,0] - 1e+06 x[2,2,3,2] + s[2,2,0] - s[3,2,0]
   >= -2.999376e+06
 precedence_between_2,2_to_3,2_if_x_[j,l,h,z,i]=0: - 1e+06 y[2,2,0]
   - 1e+06 y[3,2,0] + 1e+06 x[2,2,3,2] - s[2,2,0] + s[3,2,0]
   >= -1.999085e+06
 precedence_between_3,2_to_2,2_if_x_[j,l,h,z,i]=1: - 1e+06 y[2,2,1]
   - 1e+06 y[3,2,1] - 1e+06 x[2,2,3,2] + s[2,2,1] - s[3,2,1]
   >= -2.999873e+06
 precedence_between_2,2_to_3,2_if_x_[j,l,h,z,i]=0: - 1e+06 y[2,2,1]
   - 1e+06 y[3,2,1] + 1e+06 x[2,2,3,2] - s[2,2,1] + s[3,2,1]
   >= -1.999706e+06
 precedence_between_4,2_to_2,2_if_x_[j,l,h,z,i]=1: - 1e+06 y[2,2,0]
   - 1e+06 y[4,2,0] - 1e+06 x[2,2,4,2] + s[2,2,0] - s[4,2,0]
   >= -2.999815e+06
 precedence_between_2,2_to_4,2_if_x_[j,l,h,z,i]=0: - 1e+06 y[2,2,0]
   - 1e+06 y[4,2,0] + 1e+06 x[2,2,4,2] - s[2,2,0] + s[4,2,0]
   >= -1.999493e+06
 precedence_between_4,2_to_2,2_if_x_[j,l,h,z,i]=1: - 1e+06 y[2,2,1]
   - 1e+06 y[4,2,1] - 1e+06 x[2,2,4,2] + s[2,2,1] - s[4,2,1]
   >= -2.999628e+06
 precedence_between_2,2_to_4,2_if_x_[j,l,h,z,i]=0: - 1e+06 y[2,2,1]
   - 1e+06 y[4,2,1] + 1e+06 x[2,2,4,2] - s[2,2,1] + s[4,2,1]
   >= -1.99965e+06
 precedence_between_4,0_to_3,0_if_x_[j,l,h,z,i]=1: - 1e+06 y[3,0,5]
   - 1e+06 y[4,0,5] - 1e+06 x[3,0,4,0] + s[3,0,5] - s[4,0,5]
   >= -2.99912e+06
 precedence_between_3,0_to_4,0_if_x_[j,l,h,z,i]=0: - 1e+06 y[3,0,5]
   - 1e+06 y[4,0,5] + 1e+06 x[3,0,4,0] - s[3,0,5] + s[4,0,5]
   >= -1.999592e+06
 precedence_between_4,1_to_3,0_if_x_[j,l,h,z,i]=1: - 1e+06 y[3,0,3]
   - 1e+06 y[4,1,3] - 1e+06 x[3,0,4,1] + s[3,0,3] - s[4,1,3]
   >= -2.99933e+06
 precedence_between_3,0_to_4,1_if_x_[j,l,h,z,i]=0: - 1e+06 y[3,0,3]
   - 1e+06 y[4,1,3] + 1e+06 x[3,0,4,1] - s[3,0,3] + s[4,1,3]
   >= -1.999693e+06
 precedence_between_4,0_to_3,1_if_x_[j,l,h,z,i]=1: - 1e+06 y[3,1,4]
   - 1e+06 y[4,0,4] - 1e+06 x[3,1,4,0] + s[3,1,4] - s[4,0,4]
   >= -2.999653e+06
 precedence_between_3,1_to_4,0_if_x_[j,l,h,z,i]=0: - 1e+06 y[3,1,4]
   - 1e+06 y[4,0,4] + 1e+06 x[3,1,4,0] - s[3,1,4] + s[4,0,4]
   >= -1.999591e+06
 precedence_between_4,1_to_3,1_if_x_[j,l,h,z,i]=1: - 1e+06 y[3,1,4]
   - 1e+06 y[4,1,4] - 1e+06 x[3,1,4,1] + s[3,1,4] - s[4,1,4]
   >= -2.999549e+06
 precedence_between_3,1_to_4,1_if_x_[j,l,h,z,i]=0: - 1e+06 y[3,1,4]
   - 1e+06 y[4,1,4] + 1e+06 x[3,1,4,1] - s[3,1,4] + s[4,1,4]
   >= -1.999665e+06
 precedence_between_4,2_to_3,2_if_x_[j,l,h,z,i]=1: - 1e+06 y[3,2,0]
   - 1e+06 y[4,2,0] - 1e+06 x[3,2,4,2] + s[3,2,0] - s[4,2,0]
   >= -2.99945e+06
 precedence_between_3,2_to_4,2_if_x_[j,l,h,z,i]=0: - 1e+06 y[3,2,0]
   - 1e+06 y[4,2,0] + 1e+06 x[3,2,4,2] - s[3,2,0] + s[4,2,0]
   >= -1.999253e+06
 precedence_between_4,2_to_3,2_if_x_[j,l,h,z,i]=1: - 1e+06 y[3,2,1]
   - 1e+06 y[4,2,1] - 1e+06 x[3,2,4,2] + s[3,2,1] - s[4,2,1]
   >= -2.999484e+06
 precedence_between_3,2_to_4,2_if_x_[j,l,h,z,i]=0: - 1e+06 y[3,2,1]
   - 1e+06 y[4,2,1] + 1e+06 x[3,2,4,2] - s[3,2,1] + s[4,2,1]
   >= -1.999435e+06
 precedence_between_4,1_to_4,0_if_x_[j,l,h,z,i]=1: - 1e+06 y[4,0,4]
   - 1e+06 y[4,1,4] - 1e+06 x[4,0,4,1] + s[4,0,4] - s[4,1,4]
   >= -2.999419e+06
 precedence_between_4,0_to_4,1_if_x_[j,l,h,z,i]=0: - 1e+06 y[4,0,4]
   - 1e+06 y[4,1,4] + 1e+06 x[4,0,4,1] - s[4,0,4] + s[4,1,4]
   >= -1.99941e+06
 precedence_between_4,0_to_4,1_if_x_[j,l,h,z,i]=1: - 1e+06 y[4,0,4]
   - 1e+06 y[4,1,4] - 1e+06 x[4,1,4,0] - s[4,0,4] + s[4,1,4]
   >= -2.99941e+06
 precedence_between_4,1_to_4,0_if_x_[j,l,h,z,i]=0: - 1e+06 y[4,0,4]
   - 1e+06 y[4,1,4] + 1e+06 x[4,1,4,0] + s[4,0,4] - s[4,1,4]
   >= -1.999419e+06
 precedence_between_4,2_to_4,1_if_x_[j,l,h,z,i]=1: - 1e+06 y[4,1,2]
   - 1e+06 y[4,2,2] - 1e+06 x[4,1,4,2] + s[4,1,2] - s[4,2,2]
   >= -2.99927e+06
 precedence_between_4,1_to_4,2_if_x_[j,l,h,z,i]=0: - 1e+06 y[4,1,2]
   - 1e+06 y[4,2,2] + 1e+06 x[4,1,4,2] - s[4,1,2] + s[4,2,2]
   >= -1.999658e+06
 precedence_between_4,1_to_4,2_if_x_[j,l,h,z,i]=1: - 1e+06 y[4,1,2]
   - 1e+06 y[4,2,2] - 1e+06 x[4,2,4,1] - s[4,1,2] + s[4,2,2]
   >= -2.999658e+06
 precedence_between_4,2_to_4,1_if_x_[j,l,h,z,i]=0: - 1e+06 y[4,1,2]
   - 1e+06 y[4,2,2] + 1e+06 x[4,2,4,1] + s[4,1,2] - s[4,2,2]
   >= -1.99927e+06
 start_time_domain_job0_stage0_machine3_constraint: s[0,0,3] >= 0
 start_time_domain_job0_stage0_machine4_constraint: s[0,0,4] >= 0
 start_time_domain_job0_stage1_machine1_constraint: s[0,1,1] >= 0
 start_time_domain_job0_stage1_machine3_constraint: s[0,1,3] >= 0
 start_time_domain_job0_stage2_machine0_constraint: s[0,2,0] >= 0
 initial_start_time_job0_stage0_machine0_constraint: - 480 y[0,2,0]
   + s[0,2,0] >= 0
 start_time_domain_job0_stage2_machine1_constraint: s[0,2,1] >= 0
 initial_start_time_job0_stage0_machine1_constraint: - 480 y[0,2,1]
   + s[0,2,1] >= 0
 start_time_domain_job0_stage2_machine2_constraint: s[0,2,2] >= 0
 initial_start_time_job0_stage0_machine2_constraint: - 480 y[0,2,2]
   + s[0,2,2] >= 0
 start_time_domain_job1_stage0_machine4_constraint: s[1,0,4] >= 0
 start_time_domain_job1_stage0_machine5_constraint: s[1,0,5] >= 0
 start_time_domain_job1_stage1_machine1_constraint: s[1,1,1] >= 0
 start_time_domain_job1_stage1_machine2_constraint: s[1,1,2] >= 0
 start_time_domain_job1_stage2_machine0_constraint: s[1,2,0] >= 0
 initial_start_time_job1_stage0_machine0_constraint: - 480 y[1,2,0]
   + s[1,2,0] >= 0
 start_time_domain_job1_stage2_machine2_constraint: s[1,2,2] >= 0
 initial_start_time_job1_stage0_machine2_constraint: - 480 y[1,2,2]
   + s[1,2,2] >= 0
 start_time_domain_job2_stage0_machine3_constraint: s[2,0,3] >= 0
 start_time_domain_job2_stage0_machine4_constraint: s[2,0,4] >= 0
 start_time_domain_job2_stage0_machine5_constraint: s[2,0,5] >= 0
 start_time_domain_job2_stage1_machine2_constraint: s[2,1,2] >= 0
 start_time_domain_job2_stage1_machine3_constraint: s[2,1,3] >= 0
 start_time_domain_job2_stage2_machine0_constraint: s[2,2,0] >= 0
 initial_start_time_job2_stage0_machine0_constraint: - 480 y[2,2,0]
   + s[2,2,0] >= 0
 start_time_domain_job2_stage2_machine1_constraint: s[2,2,1] >= 0
 initial_start_time_job2_stage0_machine1_constraint: - 480 y[2,2,1]
   + s[2,2,1] >= 0
 start_time_domain_job3_stage0_machine3_constraint: s[3,0,3] >= 0
 start_time_domain_job3_stage0_machine5_constraint: s[3,0,5] >= 0
 start_time_domain_job3_stage1_machine4_constraint: s[3,1,4] >= 0
 start_time_domain_job3_stage2_machine0_constraint: s[3,2,0] >= 0
 initial_start_time_job3_stage0_machine0_constraint: - 480 y[3,2,0]
   + s[3,2,0] >= 0
 start_time_domain_job3_stage2_machine1_constraint: s[3,2,1] >= 0
 initial_start_time_job3_stage0_machine1_constraint: - 480 y[3,2,1]
   + s[3,2,1] >= 0
 start_time_domain_job4_stage0_machine4_constraint: s[4,0,4] >= 0
 start_time_domain_job4_stage0_machine5_constraint: s[4,0,5] >= 0
 start_time_domain_job4_stage1_machine2_constraint: s[4,1,2] >= 0
 start_time_domain_job4_stage1_machine3_constraint: s[4,1,3] >= 0
 start_time_domain_job4_stage1_machine4_constraint: s[4,1,4] >= 0
 start_time_domain_job4_stage2_machine0_constraint: s[4,2,0] >= 0
 initial_start_time_job4_stage0_machine0_constraint: - 480 y[4,2,0]
   + s[4,2,0] >= 0
 start_time_domain_job4_stage2_machine1_constraint: s[4,2,1] >= 0
 initial_start_time_job4_stage0_machine1_constraint: - 480 y[4,2,1]
   + s[4,2,1] >= 0
 start_time_domain_job4_stage2_machine2_constraint: s[4,2,2] >= 0
 initial_start_time_job4_stage0_machine2_constraint: - 480 y[4,2,2]
   + s[4,2,2] >= 0
 R257: - 130 y[0,1,1] - 140 y[0,1,3] + s[0,0,3] + s[0,0,4] - s[0,1,1]
   - s[0,1,3] >= 0
 R258: - 147 y[0,2,0] - 122 y[0,2,1] - 145 y[0,2,2] + s[0,1,1] + s[0,1,3]
   - s[0,2,0] - s[0,2,1] - s[0,2,2] >= 0
 R259: - 66 y[1,1,1] - 87 y[1,1,2] + s[1,0,4] + s[1,0,5] - s[1,1,1]
   - s[1,1,2] >= 0
 R260: - 214 y[1,2,0] - 150 y[1,2,2] + s[1,1,1] + s[1,1,2] - s[1,2,0]
   - s[1,2,2] >= 0
 R261: - 180 y[2,1,2] - 105 y[2,1,3] + s[2,0,3] + s[2,0,4] + s[2,0,5]
   - s[2,1,2] - s[2,1,3] >= 0
 R262: - 87 y[2,2,0] - 62 y[2,2,1] + s[2,1,2] + s[2,1,3] - s[2,2,0]
   - s[2,2,1] >= 0
 R263: - 173 y[3,1,4] + s[3,0,3] + s[3,0,5] - s[3,1,4] >= 0
 R264: - 87 y[3,2,0] - 65 y[3,2,1] + s[3,1,4] - s[3,2,0] - s[3,2,1] >= 0
 R265: - 86 y[4,1,2] - 65 y[4,1,3] - 47 y[4,1,4] + s[4,0,4] + s[4,0,5]
   - s[4,1,2] - s[4,1,3] - s[4,1,4] >= 0
 R266: - 128 y[4,2,0] - 122 y[4,2,1] - 145 y[4,2,2] + s[4,1,2] + s[4,1,3]
   + s[4,1,4] - s[4,2,0] - s[4,2,1] - s[4,2,2] >= 0
 OF_constraint: - 150 y[0,0,3] - 160 y[0,0,4] - 178 y[1,0,4] - 95 y[1,0,5]
   - 190 y[2,0,3] - 100 y[2,0,4] - 153 y[2,0,5] - 145 y[3,0,3]
   - 136 y[3,0,5] - 110 y[4,0,4] - 85 y[4,0,5] - s[0,0,3] - s[0,0,4]
   - s[1,0,4] - s[1,0,5] - s[2,0,3] - s[2,0,4] - s[2,0,5] - s[3,0,3]
   - s[3,0,5] - s[4,0,4] - s[4,0,5] + Z_FO >= 0
Bounds
Binaries
 y[0,0,3] y[0,0,4] y[0,1,1] y[0,1,3] y[0,2,0] y[0,2,1] y[0,2,2] y[1,0,4]
 y[1,0,5] y[1,1,1] y[1,1,2] y[1,2,0] y[1,2,2] y[2,0,3] y[2,0,4] y[2,0,5]
 y[2,1,2] y[2,1,3] y[2,2,0] y[2,2,1] y[3,0,3] y[3,0,5] y[3,1,4] y[3,2,0]
 y[3,2,1] y[4,0,4] y[4,0,5] y[4,1,2] y[4,1,3] y[4,1,4] y[4,2,0] y[4,2,1]
 y[4,2,2] x[0,0,0,0] x[0,0,0,1] x[0,0,0,2] x[0,0,1,0] x[0,0,1,1] x[0,0,1,2]
 x[0,0,2,0] x[0,0,2,1] x[0,0,2,2] x[0,0,3,0] x[0,0,3,1] x[0,0,3,2]
 x[0,0,4,0] x[0,0,4,1] x[0,0,4,2] x[0,1,0,0] x[0,1,0,1] x[0,1,0,2]
 x[0,1,1,0] x[0,1,1,1] x[0,1,1,2] x[0,1,2,0] x[0,1,2,1] x[0,1,2,2]
 x[0,1,3,0] x[0,1,3,1] x[0,1,3,2] x[0,1,4,0] x[0,1,4,1] x[0,1,4,2]
 x[0,2,0,0] x[0,2,0,1] x[0,2,0,2] x[0,2,1,0] x[0,2,1,1] x[0,2,1,2]
 x[0,2,2,0] x[0,2,2,1] x[0,2,2,2] x[0,2,3,0] x[0,2,3,1] x[0,2,3,2]
 x[0,2,4,0] x[0,2,4,1] x[0,2,4,2] x[1,0,0,0] x[1,0,0,1] x[1,0,0,2]
 x[1,0,1,0] x[1,0,1,1] x[1,0,1,2] x[1,0,2,0] x[1,0,2,1] x[1,0,2,2]
 x[1,0,3,0] x[1,0,3,1] x[1,0,3,2] x[1,0,4,0] x[1,0,4,1] x[1,0,4,2]
 x[1,1,0,0] x[1,1,0,1] x[1,1,0,2] x[1,1,1,0] x[1,1,1,1] x[1,1,1,2]
 x[1,1,2,0] x[1,1,2,1] x[1,1,2,2] x[1,1,3,0] x[1,1,3,1] x[1,1,3,2]
 x[1,1,4,0] x[1,1,4,1] x[1,1,4,2] x[1,2,0,0] x[1,2,0,1] x[1,2,0,2]
 x[1,2,1,0] x[1,2,1,1] x[1,2,1,2] x[1,2,2,0] x[1,2,2,1] x[1,2,2,2]
 x[1,2,3,0] x[1,2,3,1] x[1,2,3,2] x[1,2,4,0] x[1,2,4,1] x[1,2,4,2]
 x[2,0,0,0] x[2,0,0,1] x[2,0,0,2] x[2,0,1,0] x[2,0,1,1] x[2,0,1,2]
 x[2,0,2,0] x[2,0,2,1] x[2,0,2,2] x[2,0,3,0] x[2,0,3,1] x[2,0,3,2]
 x[2,0,4,0] x[2,0,4,1] x[2,0,4,2] x[2,1,0,0] x[2,1,0,1] x[2,1,0,2]
 x[2,1,1,0] x[2,1,1,1] x[2,1,1,2] x[2,1,2,0] x[2,1,2,1] x[2,1,2,2]
 x[2,1,3,0] x[2,1,3,1] x[2,1,3,2] x[2,1,4,0] x[2,1,4,1] x[2,1,4,2]
 x[2,2,0,0] x[2,2,0,1] x[2,2,0,2] x[2,2,1,0] x[2,2,1,1] x[2,2,1,2]
 x[2,2,2,0] x[2,2,2,1] x[2,2,2,2] x[2,2,3,0] x[2,2,3,1] x[2,2,3,2]
 x[2,2,4,0] x[2,2,4,1] x[2,2,4,2] x[3,0,0,0] x[3,0,0,1] x[3,0,0,2]
 x[3,0,1,0] x[3,0,1,1] x[3,0,1,2] x[3,0,2,0] x[3,0,2,1] x[3,0,2,2]
 x[3,0,3,0] x[3,0,3,1] x[3,0,3,2] x[3,0,4,0] x[3,0,4,1] x[3,0,4,2]
 x[3,1,0,0] x[3,1,0,1] x[3,1,0,2] x[3,1,1,0] x[3,1,1,1] x[3,1,1,2]
 x[3,1,2,0] x[3,1,2,1] x[3,1,2,2] x[3,1,3,0] x[3,1,3,1] x[3,1,3,2]
 x[3,1,4,0] x[3,1,4,1] x[3,1,4,2] x[3,2,0,0] x[3,2,0,1] x[3,2,0,2]
 x[3,2,1,0] x[3,2,1,1] x[3,2,1,2] x[3,2,2,0] x[3,2,2,1] x[3,2,2,2]
 x[3,2,3,0] x[3,2,3,1] x[3,2,3,2] x[3,2,4,0] x[3,2,4,1] x[3,2,4,2]
 x[4,0,0,0] x[4,0,0,1] x[4,0,0,2] x[4,0,1,0] x[4,0,1,1] x[4,0,1,2]
 x[4,0,2,0] x[4,0,2,1] x[4,0,2,2] x[4,0,3,0] x[4,0,3,1] x[4,0,3,2]
 x[4,0,4,0] x[4,0,4,1] x[4,0,4,2] x[4,1,0,0] x[4,1,0,1] x[4,1,0,2]
 x[4,1,1,0] x[4,1,1,1] x[4,1,1,2] x[4,1,2,0] x[4,1,2,1] x[4,1,2,2]
 x[4,1,3,0] x[4,1,3,1] x[4,1,3,2] x[4,1,4,0] x[4,1,4,1] x[4,1,4,2]
 x[4,2,0,0] x[4,2,0,1] x[4,2,0,2] x[4,2,1,0] x[4,2,1,1] x[4,2,1,2]
 x[4,2,2,0] x[4,2,2,1] x[4,2,2,2] x[4,2,3,0] x[4,2,3,1] x[4,2,3,2]
 x[4,2,4,0] x[4,2,4,1] x[4,2,4,2]
Generals
 Z_FO
End
